NAME: Random_75_4
ELLAPSED_TIME_(ms): 440
TOUR_SIZE: 1584
TOUR_SECTION
0
48
54
15
72
53
16
55
19
58
1
47
63
61
29
38
20
41
35
66
24
37
42
30
45
18
52
21
11
36
69
27
26
46
6
34
13
50
2
22
12
25
23
9
67
62
60
5
3
4
39
44
28
17
51
7
68
10
31
70
56
14
49
33
59
71
8
57
40
65
43
74
73
32
64
0
EOF
